68
1 0 50
2 0 13
2 1 18
3 0 47
3 1 23
3 2 26
4 0 39
4 1 2
4 2 27
4 3 22
5 0 43
5 1 39
5 2 5
5 3 10
5 4 20
6 0 14
6 1 35
6 2 18
6 3 59
6 4 3
6 5 40
7 0 13
7 1 3
7 2 44
7 3 23
7 4 6
7 5 19
7 6 49
8 0 20
8 1 60
8 2 6
8 3 35
8 4 1
8 5 57
8 6 18
8 7 5
9 0 24
9 1 3
9 2 18
9 3 55
9 4 53
9 5 27
9 6 13
9 7 33
9 8 20
10 0 45
10 1 7
10 2 14
10 3 59
10 4 22
10 5 19
10 6 29
10 7 5
10 8 45
10 9 35
11 0 3
11 1 56
11 2 27
11 3 11
11 4 33
11 5 23
11 6 39
11 7 49
11 8 23
11 9 8
11 10 32
12 0 59
12 1 36
12 2 23
12 3 23
12 4 30
12 5 34
12 6 33
12 7 45
12 8 55
12 9 4
12 10 16
12 11 42
13 0 4
13 1 49
13 2 43
13 3 6
13 4 28
13 5 32
13 6 10
13 7 32
13 8 38
13 9 18
13 10 12
13 11 5
13 12 57
14 0 41
14 1 59
14 2 25
14 3 40
14 4 50
14 5 29
14 6 37
14 7 48
14 8 33
14 9 43
14 10 43
14 11 33
14 12 6
14 13 16
15 0 6
15 1 3
15 2 13
15 3 34
15 4 60
15 5 45
15 6 34
15 7 58
15 8 51
15 9 45
15 10 37
15 11 23
15 12 11
15 13 56
15 14 45
16 0 58
16 1 26
16 2 32
16 3 57
16 4 16
16 5 44
16 6 40
16 7 26
16 8 52
16 9 33
16 10 58
16 11 11
16 12 14
16 13 50
16 14 5
16 15 3
17 0 27
17 1 54
17 2 10
17 3 4
17 4 1
17 5 29
17 6 5
17 7 60
17 8 49
17 9 21
17 10 16
17 11 20
17 12 9
17 13 31
17 14 33
17 15 15
17 16 7
18 0 11
18 1 3
18 2 21
18 3 59
18 4 39
18 5 10
18 6 52
18 7 23
18 8 51
18 9 22
18 10 2
18 11 5
18 12 26
18 13 5
18 14 41
18 15 10
18 16 30
18 17 56
19 0 8
19 1 33
19 2 13
19 3 17
19 4 2
19 5 10
19 6 9
19 7 43
19 8 47
19 9 37
19 10 57
19 11 50
19 12 38
19 13 32
19 14 42
19 15 43
19 16 31
19 17 23
19 18 9
20 0 44
20 1 23
20 2 24
20 3 28
20 4 32
20 5 24
20 6 41
20 7 32
20 8 44
20 9 29
20 10 55
20 11 35
20 12 8
20 13 48
20 14 59
20 15 57
20 16 47
20 17 24
20 18 35
20 19 2
21 0 21
21 1 6
21 2 39
21 3 57
21 4 16
21 5 6
21 6 6
21 7 24
21 8 48
21 9 10
21 10 10
21 11 34
21 12 3
21 13 13
21 14 28
21 15 18
21 16 27
21 17 47
21 18 35
21 19 49
21 20 19
22 0 29
22 1 36
22 2 39
22 3 28
22 4 41
22 5 5
22 6 28
22 7 2
22 8 56
22 9 16
22 10 22
22 11 53
22 12 41
22 13 44
22 14 20
22 15 25
22 16 38
22 17 29
22 18 9
22 19 30
22 20 27
22 21 19
23 0 1
23 1 54
23 2 1
23 3 10
23 4 35
23 5 31
23 6 11
23 7 23
23 8 10
23 9 8
23 10 43
23 11 26
23 12 19
23 13 35
23 14 6
23 15 20
23 16 4
23 17 33
23 18 9
23 19 58
23 20 34
23 21 25
23 22 48
24 0 50
24 1 49
24 2 48
24 3 26
24 4 7
24 5 43
24 6 49
24 7 25
24 8 6
24 9 49
24 10 57
24 11 12
24 12 5
24 13 16
24 14 27
24 15 38
24 16 41
24 17 57
24 18 25
24 19 38
24 20 47
24 21 50
24 22 52
24 23 25
25 0 59
25 1 55
25 2 42
25 3 30
25 4 49
25 5 28
25 6 14
25 7 50
25 8 21
25 9 17
25 10 51
25 11 17
25 12 6
25 13 8
25 14 31
25 15 24
25 16 54
25 17 50
25 18 46
25 19 23
25 20 41
25 21 26
25 22 11
25 23 31
25 24 53
26 0 28
26 1 15
26 2 30
26 3 11
26 4 23
26 5 25
26 6 30
26 7 48
26 8 27
26 9 40
26 10 53
26 11 18
26 12 46
26 13 53
26 14 45
26 15 59
26 16 19
26 17 44
26 18 60
26 19 3
26 20 9
26 21 1
26 22 23
26 23 10
26 24 57
26 25 40
27 0 49
27 1 12
27 2 41
27 3 46
27 4 60
27 5 14
27 6 22
27 7 24
27 8 44
27 9 8
27 10 37
27 11 55
27 12 7
27 13 5
27 14 50
27 15 23
27 16 60
27 17 9
27 18 22
27 19 56
27 20 32
27 21 42
27 22 31
27 23 21
27 24 46
27 25 7
27 26 36
28 0 17
28 1 27
28 2 16
28 3 25
28 4 37
28 5 47
28 6 33
28 7 38
28 8 18
28 9 27
28 10 38
28 11 4
28 12 19
28 13 26
28 14 5
28 15 54
28 16 36
28 17 16
28 18 33
28 19 18
28 20 22
28 21 46
28 22 13
28 23 52
28 24 58
28 25 33
28 26 33
28 27 55
29 0 11
29 1 40
29 2 47
29 3 48
29 4 43
29 5 13
29 6 29
29 7 20
29 8 10
29 9 55
29 10 18
29 11 11
29 12 49
29 13 50
29 14 32
29 15 6
29 16 1
29 17 41
29 18 17
29 19 52
29 20 4
29 21 43
29 22 14
29 23 37
29 24 40
29 25 43
29 26 28
29 27 52
29 28 25
30 0 57
30 1 41
30 2 26
30 3 12
30 4 55
30 5 47
30 6 60
30 7 9
30 8 9
30 9 48
30 10 57
30 11 22
30 12 45
30 13 27
30 14 2
30 15 9
30 16 7
30 17 57
30 18 36
30 19 56
30 20 2
30 21 43
30 22 44
30 23 16
30 24 18
30 25 22
30 26 25
30 27 46
30 28 26
30 29 44
31 0 30
31 1 33
31 2 7
31 3 9
31 4 15
31 5 49
31 6 26
31 7 5
31 8 45
31 9 36
31 10 3
31 11 57
31 12 11
31 13 38
31 14 2
31 15 29
31 16 1
31 17 56
31 18 41
31 19 14
31 20 38
31 21 53
31 22 50
31 23 3
31 24 44
31 25 22
31 26 22
31 27 19
31 28 42
31 29 31
31 30 56
32 0 48
32 1 42
32 2 19
32 3 2
32 4 51
32 5 13
32 6 44
32 7 9
32 8 45
32 9 20
32 10 21
32 11 27
32 12 10
32 13 58
32 14 40
32 15 8
32 16 9
32 17 35
32 18 27
32 19 43
32 20 5
32 21 41
32 22 58
32 23 41
32 24 26
32 25 33
32 26 39
32 27 13
32 28 30
32 29 11
32 30 58
32 31 3
33 0 9
33 1 43
33 2 18
33 3 42
33 4 29
33 5 13
33 6 53
33 7 27
33 8 47
33 9 10
33 10 42
33 11 58
33 12 15
33 13 37
33 14 23
33 15 29
33 16 27
33 17 8
33 18 32
33 19 39
33 20 23
33 21 58
33 22 24
33 23 51
33 24 29
33 25 39
33 26 28
33 27 25
33 28 14
33 29 41
33 30 22
33 31 54
33 32 60
34 0 28
34 1 33
34 2 33
34 3 23
34 4 42
34 5 18
34 6 33
34 7 8
34 8 9
34 9 59
34 10 47
34 11 18
34 12 19
34 13 47
34 14 58
34 15 30
34 16 28
34 17 29
34 18 30
34 19 10
34 20 54
34 21 34
34 22 38
34 23 13
34 24 47
34 25 5
34 26 19
34 27 43
34 28 35
34 29 58
34 30 15
34 31 7
34 32 59
34 33 36
35 0 51
35 1 28
35 2 55
35 3 7
35 4 57
35 5 34
35 6 11
35 7 24
35 8 59
35 9 48
35 10 31
35 11 55
35 12 20
35 13 28
35 14 8
35 15 58
35 16 24
35 17 27
35 18 30
35 19 46
35 20 49
35 21 52
35 22 19
35 23 38
35 24 24
35 25 53
35 26 13
35 27 1
35 28 56
35 29 46
35 30 44
35 31 16
35 32 6
35 33 7
35 34 29
36 0 22
36 1 49
36 2 32
36 3 30
36 4 60
36 5 1
36 6 24
36 7 15
36 8 43
36 9 34
36 10 26
36 11 57
36 12 57
36 13 49
36 14 13
36 15 48
36 16 14
36 17 2
36 18 50
36 19 42
36 20 1
36 21 38
36 22 20
36 23 14
36 24 40
36 25 14
36 26 37
36 27 10
36 28 36
36 29 27
36 30 7
36 31 41
36 32 54
36 33 21
36 34 9
36 35 4
37 0 29
37 1 3
37 2 51
37 3 40
37 4 57
37 5 23
37 6 21
37 7 16
37 8 34
37 9 10
37 10 16
37 11 12
37 12 59
37 13 11
37 14 37
37 15 46
37 16 46
37 17 1
37 18 12
37 19 5
37 20 46
37 21 19
37 22 38
37 23 58
37 24 49
37 25 5
37 26 32
37 27 55
37 28 23
37 29 17
37 30 60
37 31 60
37 32 13
37 33 26
37 34 56
37 35 20
37 36 7
38 0 32
38 1 57
38 2 30
38 3 4
38 4 3
38 5 9
38 6 56
38 7 44
38 8 53
38 9 42
38 10 17
38 11 1
38 12 50
38 13 9
38 14 19
38 15 56
38 16 38
38 17 59
38 18 34
38 19 10
38 20 41
38 21 37
38 22 4
38 23 5
38 24 10
38 25 10
38 26 1
38 27 5
38 28 4
38 29 21
38 30 42
38 31 21
38 32 15
38 33 34
38 34 27
38 35 41
38 36 46
38 37 4
39 0 26
39 1 50
39 2 48
39 3 26
39 4 16
39 5 22
39 6 12
39 7 10
39 8 7
39 9 18
39 10 20
39 11 57
39 12 30
39 13 50
39 14 45
39 15 45
39 16 60
39 17 53
39 18 54
39 19 1
39 20 48
39 21 21
39 22 48
39 23 38
39 24 29
39 25 18
39 26 41
39 27 10
39 28 46
39 29 34
39 30 40
39 31 47
39 32 46
39 33 8
39 34 6
39 35 59
39 36 23
39 37 47
39 38 19
40 0 32
40 1 37
40 2 32
40 3 39
40 4 51
40 5 52
40 6 54
40 7 5
40 8 17
40 9 52
40 10 7
40 11 2
40 12 14
40 13 22
40 14 40
40 15 52
40 16 4
40 17 5
40 18 8
40 19 14
40 20 8
40 21 17
40 22 39
40 23 34
40 24 31
40 25 3
40 26 56
40 27 52
40 28 11
40 29 24
40 30 32
40 31 3
40 32 44
40 33 19
40 34 43
40 35 18
40 36 54
40 37 39
40 38 11
40 39 8
41 0 31
41 1 32
41 2 28
41 3 16
41 4 34
41 5 34
41 6 55
41 7 17
41 8 32
41 9 58
41 10 17
41 11 5
41 12 15
41 13 30
41 14 37
41 15 11
41 16 51
41 17 49
41 18 49
41 19 28
41 20 31
41 21 35
41 22 6
41 23 10
41 24 20
41 25 31
41 26 12
41 27 57
41 28 11
41 29 11
41 30 10
41 31 28
41 32 35
41 33 3
41 34 58
41 35 45
41 36 54
41 37 24
41 38 7
41 39 14
41 40 31
42 0 8
42 1 31
42 2 27
42 3 37
42 4 58
42 5 46
42 6 30
42 7 38
42 8 25
42 9 41
42 10 59
42 11 57
42 12 2
42 13 1
42 14 52
42 15 55
42 16 44
42 17 34
42 18 32
42 19 31
42 20 34
42 21 57
42 22 6
42 23 17
42 24 59
42 25 46
42 26 36
42 27 3
42 28 31
42 29 21
42 30 31
42 31 55
42 32 25
42 33 45
42 34 5
42 35 29
42 36 40
42 37 56
42 38 13
42 39 56
42 40 30
42 41 29
43 0 38
43 1 52
43 2 14
43 3 53
43 4 8
43 5 57
43 6 2
43 7 33
43 8 43
43 9 21
43 10 1
43 11 4
43 12 59
43 13 7
43 14 51
43 15 11
43 16 13
43 17 42
43 18 31
43 19 38
43 20 54
43 21 1
43 22 60
43 23 56
43 24 42
43 25 13
43 26 27
43 27 22
43 28 6
43 29 51
43 30 21
43 31 17
43 32 8
43 33 1
43 34 19
43 35 9
43 36 9
43 37 43
43 38 31
43 39 50
43 40 19
43 41 40
43 42 21
44 0 28
44 1 20
44 2 6
44 3 33
44 4 28
44 5 45
44 6 20
44 7 25
44 8 55
44 9 34
44 10 20
44 11 47
44 12 2
44 13 18
44 14 11
44 15 23
44 16 40
44 17 25
44 18 32
44 19 17
44 20 5
44 21 8
44 22 20
44 23 33
44 24 9
44 25 42
44 26 15
44 27 42
44 28 8
44 29 38
44 30 57
44 31 19
44 32 24
44 33 6
44 34 40
44 35 44
44 36 51
44 37 28
44 38 7
44 39 4
44 40 50
44 41 32
44 42 37
44 43 44
45 0 55
45 1 37
45 2 41
45 3 16
45 4 43
45 5 24
45 6 60
45 7 6
45 8 45
45 9 39
45 10 54
45 11 41
45 12 54
45 13 34
45 14 12
45 15 56
45 16 55
45 17 58
45 18 1
45 19 2
45 20 19
45 21 19
45 22 39
45 23 13
45 24 19
45 25 12
45 26 47
45 27 32
45 28 46
45 29 58
45 30 37
45 31 23
45 32 12
45 33 32
45 34 49
45 35 54
45 36 31
45 37 33
45 38 5
45 39 31
45 40 56
45 41 24
45 42 51
45 43 27
45 44 4
46 0 60
46 1 42
46 2 45
46 3 26
46 4 55
46 5 59
46 6 25
46 7 45
46 8 35
46 9 7
46 10 22
46 11 37
46 12 42
46 13 34
46 14 30
46 15 39
46 16 44
46 17 8
46 18 10
46 19 13
46 20 31
46 21 24
46 22 38
46 23 8
46 24 5
46 25 18
46 26 28
46 27 54
46 28 17
46 29 18
46 30 51
46 31 50
46 32 1
46 33 23
46 34 20
46 35 37
46 36 50
46 37 7
46 38 32
46 39 18
46 40 23
46 41 19
46 42 35
46 43 6
46 44 4
46 45 9
47 0 42
47 1 54
47 2 40
47 3 51
47 4 53
47 5 56
47 6 56
47 7 52
47 8 40
47 9 36
47 10 22
47 11 50
47 12 36
47 13 35
47 14 44
47 15 9
47 16 40
47 17 52
47 18 54
47 19 13
47 20 56
47 21 53
47 22 15
47 23 46
47 24 4
47 25 26
47 26 33
47 27 32
47 28 39
47 29 40
47 30 11
47 31 29
47 32 18
47 33 23
47 34 4
47 35 12
47 36 2
47 37 47
47 38 32
47 39 15
47 40 28
47 41 52
47 42 20
47 43 21
47 44 39
47 45 21
47 46 9
48 0 8
48 1 49
48 2 8
48 3 34
48 4 24
48 5 12
48 6 11
48 7 13
48 8 18
48 9 40
48 10 29
48 11 39
48 12 4
48 13 5
48 14 39
48 15 5
48 16 43
48 17 17
48 18 13
48 19 4
48 20 24
48 21 18
48 22 39
48 23 50
48 24 57
48 25 15
48 26 35
48 27 47
48 28 60
48 29 52
48 30 57
48 31 18
48 32 36
48 33 46
48 34 55
48 35 57
48 36 17
48 37 39
48 38 49
48 39 49
48 40 57
48 41 26
48 42 30
48 43 24
48 44 5
48 45 41
48 46 44
48 47 22
49 0 11
49 1 56
49 2 44
49 3 1
49 4 12
49 5 53
49 6 43
49 7 31
49 8 46
49 9 18
49 10 11
49 11 56
49 12 12
49 13 23
49 14 29
49 15 44
49 16 31
49 17 54
49 18 37
49 19 27
49 20 18
49 21 4
49 22 20
49 23 28
49 24 46
49 25 12
49 26 9
49 27 5
49 28 34
49 29 48
49 30 52
49 31 37
49 32 11
49 33 11
49 34 25
49 35 59
49 36 54
49 37 59
49 38 24
49 39 51
49 40 44
49 41 25
49 42 36
49 43 43
49 44 39
49 45 39
49 46 13
49 47 10
49 48 19
50 0 1
50 1 43
50 2 21
50 3 52
50 4 52
50 5 29
50 6 21
50 7 31
50 8 4
50 9 43
50 10 53
50 11 8
50 12 50
50 13 9
50 14 48
50 15 60
50 16 59
50 17 45
50 18 2
50 19 15
50 20 9
50 21 17
50 22 5
50 23 3
50 24 20
50 25 20
50 26 14
50 27 13
50 28 51
50 29 32
50 30 55
50 31 48
50 32 40
50 33 41
50 34 10
50 35 14
50 36 35
50 37 8
50 38 54
50 39 33
50 40 46
50 41 51
50 42 26
50 43 5
50 44 34
50 45 43
50 46 41
50 47 43
50 48 48
50 49 8
51 0 44
51 1 17
51 2 40
51 3 56
51 4 51
51 5 59
51 6 5
51 7 16
51 8 9
51 9 47
51 10 14
51 11 52
51 12 16
51 13 6
51 14 33
51 15 52
51 16 4
51 17 29
51 18 11
51 19 6
51 20 4
51 21 46
51 22 60
51 23 37
51 24 3
51 25 10
51 26 39
51 27 44
51 28 11
51 29 11
51 30 59
51 31 49
51 32 29
51 33 17
51 34 3
51 35 56
51 36 36
51 37 46
51 38 26
51 39 35
51 40 8
51 41 13
51 42 40
51 43 32
51 44 56
51 45 31
51 46 59
51 47 22
51 48 19
51 49 20
51 50 31
52 0 8
52 1 51
52 2 29
52 3 56
52 4 20
52 5 17
52 6 34
52 7 56
52 8 11
52 9 53
52 10 55
52 11 9
52 12 48
52 13 1
52 14 42
52 15 23
52 16 40
52 17 58
52 18 32
52 19 18
52 20 41
52 21 11
52 22 15
52 23 53
52 24 42
52 25 25
52 26 29
52 27 14
52 28 3
52 29 41
52 30 9
52 31 45
52 32 46
52 33 40
52 34 22
52 35 35
52 36 29
52 37 16
52 38 47
52 39 56
52 40 53
52 41 20
52 42 59
52 43 35
52 44 43
52 45 42
52 46 59
52 47 44
52 48 18
52 49 12
52 50 12
52 51 9
53 0 8
53 1 7
53 2 24
53 3 60
53 4 16
53 5 27
53 6 25
53 7 59
53 8 19
53 9 46
53 10 46
53 11 43
53 12 17
53 13 42
53 14 17
53 15 11
53 16 37
53 17 4
53 18 35
53 19 12
53 20 19
53 21 30
53 22 54
53 23 42
53 24 46
53 25 1
53 26 36
53 27 34
53 28 41
53 29 34
53 30 20
53 31 21
53 32 29
53 33 56
53 34 51
53 35 51
53 36 48
53 37 20
53 38 41
53 39 44
53 40 7
53 41 31
53 42 26
53 43 21
53 44 32
53 45 23
53 46 17
53 47 38
53 48 17
53 49 12
53 50 48
53 51 42
53 52 34
54 0 12
54 1 34
54 2 24
54 3 36
54 4 57
54 5 49
54 6 8
54 7 13
54 8 46
54 9 10
54 10 39
54 11 14
54 12 14
54 13 22
54 14 26
54 15 23
54 16 27
54 17 27
54 18 8
54 19 48
54 20 33
54 21 43
54 22 7
54 23 58
54 24 46
54 25 26
54 26 54
54 27 57
54 28 58
54 29 22
54 30 20
54 31 13
54 32 25
54 33 11
54 34 30
54 35 13
54 36 21
54 37 43
54 38 57
54 39 46
54 40 17
54 41 23
54 42 35
54 43 43
54 44 37
54 45 14
54 46 20
54 47 35
54 48 35
54 49 38
54 50 30
54 51 1
54 52 35
54 53 24
55 0 22
55 1 23
55 2 56
55 3 49
55 4 24
55 5 49
55 6 52
55 7 7
55 8 12
55 9 16
55 10 51
55 11 6
55 12 8
55 13 56
55 14 25
55 15 1
55 16 4
55 17 38
55 18 55
55 19 7
55 20 48
55 21 4
55 22 6
55 23 6
55 24 3
55 25 18
55 26 20
55 27 47
55 28 9
55 29 40
55 30 53
55 31 23
55 32 47
55 33 60
55 34 24
55 35 20
55 36 24
55 37 49
55 38 2
55 39 46
55 40 5
55 41 3
55 42 10
55 43 46
55 44 8
55 45 13
55 46 3
55 47 2
55 48 38
55 49 23
55 50 1
55 51 46
55 52 35
55 53 60
55 54 31
56 0 58
56 1 31
56 2 43
56 3 37
56 4 60
56 5 48
56 6 47
56 7 35
56 8 37
56 9 46
56 10 13
56 11 33
56 12 39
56 13 28
56 14 31
56 15 36
56 16 48
56 17 52
56 18 4
56 19 31
56 20 40
56 21 30
56 22 37
56 23 17
56 24 34
56 25 11
56 26 45
56 27 3
56 28 2
56 29 7
56 30 51
56 31 54
56 32 59
56 33 24
56 34 13
56 35 54
56 36 48
56 37 2
56 38 25
56 39 10
56 40 59
56 41 52
56 42 37
56 43 60
56 44 8
56 45 52
56 46 57
56 47 8
56 48 20
56 49 53
56 50 60
56 51 52
56 52 7
56 53 43
56 54 41
56 55 38
57 0 48
57 1 6
57 2 38
57 3 54
57 4 41
57 5 3
57 6 23
57 7 57
57 8 30
57 9 34
57 10 14
57 11 46
57 12 6
57 13 39
57 14 35
57 15 52
57 16 12
57 17 8
57 18 51
57 19 59
57 20 44
57 21 55
57 22 37
57 23 1
57 24 4
57 25 24
57 26 33
57 27 31
57 28 20
57 29 15
57 30 52
57 31 36
57 32 14
57 33 59
57 34 53
57 35 18
57 36 33
57 37 46
57 38 45
57 39 22
57 40 49
57 41 29
57 42 12
57 43 16
57 44 4
57 45 5
57 46 9
57 47 2
57 48 46
57 49 35
57 50 29
57 51 53
57 52 52
57 53 26
57 54 19
57 55 55
57 56 12
58 0 55
58 1 20
58 2 20
58 3 9
58 4 53
58 5 24
58 6 1
58 7 34
58 8 7
58 9 19
58 10 19
58 11 23
58 12 53
58 13 25
58 14 20
58 15 12
58 16 38
58 17 25
58 18 17
58 19 1
58 20 51
58 21 43
58 22 33
58 23 47
58 24 37
58 25 2
58 26 29
58 27 23
58 28 10
58 29 6
58 30 5
58 31 17
58 32 42
58 33 52
58 34 20
58 35 6
58 36 11
58 37 16
58 38 27
58 39 35
58 40 49
58 41 33
58 42 36
58 43 48
58 44 36
58 45 59
58 46 50
58 47 45
58 48 50
58 49 3
58 50 59
58 51 23
58 52 53
58 53 34
58 54 16
58 55 59
58 56 19
58 57 42
59 0 27
59 1 24
59 2 9
59 3 8
59 4 53
59 5 11
59 6 5
59 7 23
59 8 57
59 9 13
59 10 50
59 11 1
59 12 36
59 13 7
59 14 52
59 15 56
59 16 56
59 17 12
59 18 7
59 19 10
59 20 8
59 21 18
59 22 48
59 23 53
59 24 14
59 25 31
59 26 1
59 27 34
59 28 24
59 29 32
59 30 60
59 31 27
59 32 46
59 33 15
59 34 6
59 35 39
59 36 5
59 37 56
59 38 55
59 39 46
59 40 33
59 41 59
59 42 7
59 43 47
59 44 46
59 45 54
59 46 54
59 47 28
59 48 34
59 49 35
59 50 5
59 51 41
59 52 10
59 53 21
59 54 24
59 55 23
59 56 58
59 57 44
59 58 19
60 0 2
60 1 53
60 2 57
60 3 29
60 4 47
60 5 4
60 6 24
60 7 55
60 8 49
60 9 20
60 10 43
60 11 59
60 12 29
60 13 46
60 14 10
60 15 17
60 16 4
60 17 12
60 18 32
60 19 49
60 20 38
60 21 39
60 22 34
60 23 58
60 24 10
60 25 54
60 26 57
60 27 9
60 28 31
60 29 37
60 30 4
60 31 32
60 32 40
60 33 52
60 34 5
60 35 38
60 36 43
60 37 6
60 38 19
60 39 59
60 40 42
60 41 35
60 42 42
60 43 23
60 44 28
60 45 55
60 46 52
60 47 56
60 48 44
60 49 30
60 50 18
60 51 15
60 52 28
60 53 38
60 54 13
60 55 25
60 56 1
60 57 49
60 58 37
60 59 37
61 0 40
61 1 30
61 2 19
61 3 31
61 4 28
61 5 3
61 6 57
61 7 39
61 8 40
61 9 7
61 10 24
61 11 38
61 12 5
61 13 25
61 14 56
61 15 59
61 16 3
61 17 27
61 18 17
61 19 29
61 20 54
61 21 4
61 22 9
61 23 51
61 24 15
61 25 39
61 26 60
61 27 46
61 28 25
61 29 15
61 30 12
61 31 46
61 32 33
61 33 16
61 34 51
61 35 35
61 36 37
61 37 7
61 38 39
61 39 30
61 40 22
61 41 15
61 42 53
61 43 31
61 44 27
61 45 30
61 46 20
61 47 43
61 48 48
61 49 17
61 50 41
61 51 32
61 52 48
61 53 29
61 54 36
61 55 47
61 56 37
61 57 57
61 58 38
61 59 23
61 60 8
62 0 50
62 1 53
62 2 25
62 3 7
62 4 16
62 5 34
62 6 56
62 7 25
62 8 8
62 9 19
62 10 25
62 11 44
62 12 59
62 13 44
62 14 2
62 15 51
62 16 2
62 17 33
62 18 8
62 19 33
62 20 17
62 21 19
62 22 15
62 23 46
62 24 55
62 25 35
62 26 8
62 27 18
62 28 19
62 29 4
62 30 3
62 31 28
62 32 52
62 33 59
62 34 39
62 35 28
62 36 56
62 37 46
62 38 6
62 39 11
62 40 59
62 41 57
62 42 10
62 43 50
62 44 28
62 45 36
62 46 46
62 47 48
62 48 4
62 49 49
62 50 41
62 51 9
62 52 38
62 53 16
62 54 50
62 55 3
62 56 32
62 57 26
62 58 15
62 59 8
62 60 27
62 61 20
63 0 28
63 1 10
63 2 46
63 3 55
63 4 12
63 5 45
63 6 18
63 7 6
63 8 18
63 9 5
63 10 44
63 11 23
63 12 34
63 13 46
63 14 2
63 15 37
63 16 49
63 17 16
63 18 58
63 19 57
63 20 13
63 21 30
63 22 14
63 23 27
63 24 53
63 25 47
63 26 55
63 27 43
63 28 13
63 29 57
63 30 21
63 31 29
63 32 32
63 33 19
63 34 27
63 35 7
63 36 49
63 37 5
63 38 15
63 39 25
63 40 51
63 41 11
63 42 2
63 43 12
63 44 48
63 45 33
63 46 31
63 47 26
63 48 16
63 49 26
63 50 49
63 51 12
63 52 20
63 53 24
63 54 6
63 55 25
63 56 49
63 57 53
63 58 25
63 59 11
63 60 14
63 61 26
63 62 47
64 0 26
64 1 50
64 2 14
64 3 47
64 4 53
64 5 48
64 6 26
64 7 3
64 8 44
64 9 36
64 10 14
64 11 36
64 12 32
64 13 54
64 14 1
64 15 42
64 16 3
64 17 34
64 18 44
64 19 48
64 20 11
64 21 46
64 22 28
64 23 49
64 24 22
64 25 16
64 26 55
64 27 38
64 28 42
64 29 60
64 30 5
64 31 39
64 32 58
64 33 1
64 34 26
64 35 52
64 36 20
64 37 15
64 38 32
64 39 42
64 40 6
64 41 21
64 42 38
64 43 30
64 44 9
64 45 8
64 46 48
64 47 41
64 48 43
64 49 55
64 50 43
64 51 37
64 52 45
64 53 54
64 54 2
64 55 55
64 56 55
64 57 30
64 58 5
64 59 47
64 60 3
64 61 11
64 62 5
64 63 24
65 0 35
65 1 16
65 2 27
65 3 36
65 4 19
65 5 34
65 6 47
65 7 20
65 8 31
65 9 11
65 10 17
65 11 41
65 12 9
65 13 23
65 14 7
65 15 21
65 16 53
65 17 46
65 18 55
65 19 54
65 20 55
65 21 1
65 22 5
65 23 15
65 24 10
65 25 48
65 26 1
65 27 7
65 28 57
65 29 44
65 30 13
65 31 26
65 32 23
65 33 33
65 34 49
65 35 58
65 36 16
65 37 53
65 38 12
65 39 39
65 40 50
65 41 56
65 42 35
65 43 17
65 44 4
65 45 33
65 46 49
65 47 43
65 48 4
65 49 4
65 50 48
65 51 38
65 52 49
65 53 52
65 54 5
65 55 28
65 56 29
65 57 55
65 58 47
65 59 18
65 60 56
65 61 23
65 62 49
65 63 29
65 64 3
66 0 13
66 1 56
66 2 30
66 3 9
66 4 20
66 5 15
66 6 19
66 7 41
66 8 35
66 9 14
66 10 7
66 11 39
66 12 2
66 13 10
66 14 24
66 15 48
66 16 50
66 17 40
66 18 30
66 19 30
66 20 56
66 21 60
66 22 21
66 23 27
66 24 25
66 25 46
66 26 50
66 27 11
66 28 59
66 29 36
66 30 6
66 31 39
66 32 17
66 33 57
66 34 41
66 35 25
66 36 38
66 37 49
66 38 22
66 39 21
66 40 41
66 41 14
66 42 2
66 43 47
66 44 1
66 45 47
66 46 56
66 47 29
66 48 27
66 49 34
66 50 22
66 51 56
66 52 56
66 53 6
66 54 15
66 55 48
66 56 9
66 57 31
66 58 30
66 59 33
66 60 59
66 61 36
66 62 58
66 63 40
66 64 51
66 65 45
67 0 21
67 1 46
67 2 22
67 3 5
67 4 36
67 5 42
67 6 43
67 7 43
67 8 17
67 9 26
67 10 59
67 11 38
67 12 15
67 13 20
67 14 6
67 15 8
67 16 37
67 17 52
67 18 11
67 19 57
67 20 33
67 21 15
67 22 35
67 23 44
67 24 43
67 25 21
67 26 43
67 27 6
67 28 22
67 29 47
67 30 33
67 31 47
67 32 4
67 33 12
67 34 25
67 35 24
67 36 59
67 37 4
67 38 31
67 39 55
67 40 2
67 41 34
67 42 4
67 43 48
67 44 5
67 45 16
67 46 12
67 47 37
67 48 38
67 49 45
67 50 1
67 51 14
67 52 56
67 53 29
67 54 19
67 55 7
67 56 57
67 57 22
67 58 58
67 59 31
67 60 32
67 61 52
67 62 55
67 63 60
67 64 34
67 65 51
67 66 25
